p cnf 12 50 
-9 -12 -1 0
3 -4 -1 0
10 -3 4 0
4 -2 -1 0
-12 -11 6 0
-2 8 10 0
10 -7 12 0
4 -5 -9 0
6 -9 -10 0
-6 9 8 0
-6 12 -2 0
-8 -3 -2 0
8 11 4 0
-10 7 -3 0
4 5 -10 0
-11 -10 -6 0
-12 9 -8 0
8 1 5 0
-2 -6 7 0
8 -2 1 0
9 -12 -3 0
6 9 1 0
2 -12 -3 0
-8 6 5 0
-12 7 1 0
7 11 -10 0
-11 -7 -1 0
-4 8 -6 0
12 -11 5 0
12 -4 3 0
8 -4 7 0
-7 -1 5 0
4 12 -6 0
2 8 -4 0
6 -5 2 0
9 -4 -8 0
-1 2 8 0
7 -6 5 0
-12 -1 -7 0
-4 7 3 0
-12 -11 10 0
-10 2 6 0
-4 -11 -5 0
-10 -5 -2 0
10 -8 -5 0
1 -2 -5 0
3 11 -1 0
6 -11 3 0
-4 -2 -11 0
2 -4 1 0
